benchmarks/VRPTW/TSPTW/solution/n60w60.001.txt.solution
1 50 27 40 9 17 8 35 47 53 3 20 21 26 34 15 54 57 13 30 39 46 28 38 31 29 48 43 2 41 33 19 23 5 12 36 18 52 22 49 45 10 32 25 6 44 55 37 59 51 16 4 11 60 42 58 56 24 61 14 7 
609
